tsp_instances/TSP50/instance125.tsp
NODE_COORD_SECTION
0 92 104
1 152 56
2 192 55
3 102 78
4 91 70
5 17 68
6 173 119
7 176 72
8 171 175
9 160 72
10 123 32
11 126 20
12 172 123
13 44 92
14 194 121
15 21 87
16 114 148
17 20 120
18 135 89
19 150 83
20 42 118
21 71 46
22 57 26
23 199 127
24 179 101
25 23 144
26 186 33
27 80 8
28 70 143
29 194 19
30 163 151
31 166 33
32 152 33
33 79 9
34 195 44
35 147 88
36 48 171
37 136 26
38 148 200
39 145 173
40 174 150
41 135 140
42 195 120
43 19 135
44 101 176
45 166 29
46 96 116
47 161 35
48 141 85
49 100 168
