tsp_instances/TSP50/instance125.opt.tour
TOUR_SECTION
1
4
5
22
28
34
23
6
16
14
21
18
44
26
37
29
45
50
17
42
40
39
9
31
41
24
43
15
13
7
25
8
3
35
27
30
46
32
48
33
38
12
11
2
10
20
36
49
19
47
-1